100
300
30
0 0
24 31
53 6
89 50
32 42
96 11
43 14
25 50
54 36
4 44
54 84
66 50
26 82
1 18
82 24
45 52
15 21
7 21
99 24
51 90
55 53
18 17
56 46
70 32
37 63
88 95
21 81
33 68
1 15
95 70
92 41
0 0
40
70
40
30
50
70
40
40
70
60
60
70
30
30
70
40
70
40
30
50
70
40
40
70
60
60
70
30
30
70
